Please solve the following SAT Problem encoded in DIMACS format, only return a single solution assignment without explanations, if there is any: 
p cnf 5 22
4 -2 3 0
-1 5 3 0
2 4 3 0
-5 4 -1 0
-2 -1 5 0
-1 4 -2 0
-1 4 -2 0
-4 -2 5 0
4 -5 3 0
3 1 4 0
3 -2 -1 0
-1 -4 3 0
1 4 5 0
-1 -2 5 0
3 -1 5 0
4 -1 -5 0
3 2 -4 0
3 -2 5 0
4 3 5 0
3 -2 -1 0
-1 4 3 0
5 -2 4 0

